10
2 1 45
3 0 68
3 1 4
4 0 75
4 2 50
4 3 34
5 1 66
6 0 76
6 1 37
6 3 13
6 4 68
6 5 47
7 1 31
7 2 47
7 3 39
7 6 71
8 0 18
8 2 77
8 3 14
8 5 44
8 6 67
8 7 62
9 1 39
9 2 66
9 4 6
9 5 47
9 6 19
9 7 61
9 8 26
